(set-option :produce-models true)
(set-logic QF_UF)
(declare-fun p44() Bool)
(declare-fun p1() Bool)
(declare-fun p55() Bool)
(declare-fun p57() Bool)
(declare-fun p6() Bool)
(declare-fun p23() Bool)
(declare-fun p15() Bool)
(declare-fun p2() Bool)
(declare-fun p49() Bool)
(declare-fun p24() Bool)
(declare-fun p16() Bool)
(declare-fun p25() Bool)
(declare-fun p4() Bool)
(declare-fun p22() Bool)
(declare-fun p28() Bool)
(declare-fun p17() Bool)
(declare-fun p14() Bool)
(declare-fun p18() Bool)
(declare-fun p43() Bool)
(declare-fun p26() Bool)
(declare-fun p50() Bool)
(declare-fun p0() Bool)
(declare-fun p29() Bool)
(declare-fun p48() Bool)
(declare-fun p33() Bool)
(declare-fun p52() Bool)
(declare-fun p39() Bool)
(declare-fun p45() Bool)
(declare-fun p30() Bool)
(declare-fun p13() Bool)
(declare-fun p37() Bool)
(declare-fun p9() Bool)
(declare-fun p40() Bool)
(declare-fun p32() Bool)
(declare-fun p42() Bool)
(declare-fun p7() Bool)
(declare-fun p10() Bool)
(declare-fun p35() Bool)
(declare-fun p21() Bool)
(declare-fun p8() Bool)
(declare-fun p3() Bool)
(declare-fun p58() Bool)
(declare-fun p5() Bool)
(declare-fun p36() Bool)
(declare-fun p38() Bool)
(declare-fun p54() Bool)
(declare-fun p59() Bool)
(declare-fun p47() Bool)
(declare-fun p46() Bool)
(declare-fun p27() Bool)
(declare-fun p20() Bool)
(declare-fun p41() Bool)
(declare-fun p11() Bool)
(declare-fun p53() Bool)
(declare-fun p12() Bool)
(declare-fun p56() Bool)
(declare-fun p51() Bool)
(declare-fun p31() Bool)
(declare-fun p34() Bool)
(declare-fun p19() Bool)
(assert
(and (or (not p44) p1 p55) (or (not p57) (not p6) (not p23)) (or (not p55) p15 (not p2)) (or (not p49) (not p24) (not p16)) (or p25 p4 (not p22)) (or p28 p17 p14) (or p18 (not p43) (not p23)) (or (not p26) p22 (not p50)) (or p0 p23 p29) (or (not p43) p48 p0) (or p33 p44 p1) (or (not p52) p4 (not p39)) (or (not p45) (not p30) p13) (or (not p2) (not p37) p9) (or (not p40) (not p26) p50) (or p32 (not p42) p29) (or (not p17) p28 (not p7)) (or (not p10) (not p9) (not p35)) (or (not p35) (not p55) (not p48)) (or p13 p21 p8) (or p3 (not p3) (not p58)) (or (not p2) (not p4) (not p16)) (or p3 (not p0) p5) (or (not p26) (not p39) (not p9)) (or p10 (not p36) (not p38)) (or p54 (not p21) p59) (or p58 p50 (not p48)) (or p4 (not p47) p49) (or p6 p24 (not p44)) (or (not p59) (not p45) (not p46)) (or (not p35) p14 (not p27)) (or (not p30) (not p21) (not p21)) (or p15 (not p32) p20) (or p54 (not p13) p14) (or p2 (not p10) (not p41)) (or (not p22) (not p10) (not p21)) (or (not p15) p10 p44) (or p54 p15 (not p18)) (or p48 (not p57) p50) (or (not p24) p42 p16) (or (not p52) (not p45) p38) (or (not p13) (not p25) (not p50)) (or (not p23) p43 (not p33)) (or p11 p41 (not p22)) (or p4 (not p49) (not p45)) (or (not p14) p5 p15) (or (not p14) (not p26) p42) (or p1 (not p37) (not p25)) (or p46 p16 (not p48)) (or (not p53) (not p54) p36) (or (not p40) p37 p2) (or (not p46) (not p7) p59) (or p46 p15 (not p13)) (or (not p32) p12 (not p43)) (or p7 p56 p40) (or p51 (not p44) (not p46)) (or (not p16) (not p29) p22) (or p54 (not p31) p51) (or p35 p56 (not p37)) (or (not p2) (not p33) p29) (or p42 (not p51) p50) (or p34 p57 p19) (or p12 p46 p39) (or (not p23) (not p36) (not p15)) (or (not p20) p51 (not p10)) (or p53 (not p26) p4) (or (not p50) p54 p19) (or p19 (not p34) p45) (or (not p2) p43 (not p14)) (or (not p15) p38 p0) (or p4 (not p34) (not p51)) (or (not p16) p19 (not p53)) (or p29 (not p55) p11) (or (not p4) p19 (not p50)) (or (not p41) (not p53) (not p28)) (or (not p4) p21 p15) (or p42 p18 (not p59)) (or p47 (not p17) p58) (or (not p12) (not p12) (not p5)) (or (not p36) p31 (not p28)) (or p36 p31 (not p30)) (or (not p0) (not p26) p22) (or p58 (not p42) p28) (or (not p45) (not p51) p51) (or p32 p51 p48) (or (not p34) (not p10) p44) (or (not p54) (not p20) (not p17)) (or (not p38) p39 (not p47)) (or (not p3) p55 (not p8)) (or p44 (not p8) p43) (or (not p13) p45 p13) (or (not p49) p54 (not p23)) (or (not p32) p49 p23) (or (not p52) p40 (not p4)) (or (not p4) p53 (not p29)) (or (not p11) p8 p29) (or p33 (not p20) p53) (or (not p39) p5 p21) (or (not p43) p3 (not p25)) (or p35 p10 p53) (or p9 (not p34) (not p14)) (or (not p5) p55 p25) (or p23 (not p17) (not p7)) (or (not p4) (not p28) p18) (or p24 p41 (not p53)) (or p41 (not p1) (not p52)) (or (not p31) p55 p41) (or (not p23) p8 (not p12)) (or p43 (not p17) (not p31)) (or p9 (not p6) (not p56)) (or p8 (not p20) (not p8)) (or (not p12) (not p5) (not p1)) (or p30 (not p41) p54) (or (not p23) p38 p13) (or (not p12) p46 (not p35)) (or (not p45) (not p6) (not p34)) (or (not p0) (not p33) p25) (or p36 p16 (not p57)) (or p46 p37 (not p32)) (or (not p37) (not p29) (not p26)) (or (not p2) p20 p24) (or (not p38) (not p51) p58) (or (not p33) p0 (not p58)) (or p4 p19 p17) (or (not p16) p52 (not p9)) (or (not p38) p5 (not p32)) (or p23 p3 (not p36)) (or p59 p1 p51) (or (not p4) p27 (not p10)) (or (not p36) (not p45) (not p9)) (or p16 p1 (not p41)) (or p23 (not p42) p21) (or (not p49) p40 p21) (or p2 (not p29) p45) (or p55 p22 (not p13)) (or (not p2) p5 p58) (or p17 p51 (not p7)) (or p19 (not p5) (not p12)) (or p0 p9 p16) (or p21 (not p55) (not p31)) (or (not p28) p54 p13) (or (not p37) p59 (not p34)) (or (not p25) p41 p54) (or p47 p45 (not p40)) (or p50 (not p10) (not p34)) (or p28 (not p6) (not p57)) (or p48 (not p17) (not p20)) (or p43 p19 (not p54)) (or p26 (not p14) p34) (or (not p46) p38 (not p38)) (or p15 p46 p3) (or p58 p8 p46) (or (not p40) p27 p19) (or (not p56) p25 p58) (or p43 (not p52) p6) (or (not p11) p31 (not p12)) (or (not p37) (not p57) p6) (or p6 p53 (not p40)) (or (not p17) p53 (not p29)) (or p3 p43 p2) (or p15 p34 (not p16)) (or (not p11) (not p11) p56) (or p38 (not p52) p29) (or p17 p3 (not p1)) (or p41 p53 (not p24)) (or (not p4) (not p17) p39) (or (not p2) (not p38) (not p23)) (or p43 (not p26) (not p29)) (or p16 p50 (not p5)) (or (not p35) (not p41) p43) (or p38 (not p55) (not p5)) (or (not p21) (not p6) (not p49)) (or p52 p28 (not p13)) (or (not p49) p36 p10) (or (not p27) (not p15) (not p13)) (or (not p11) p48 (not p29)) (or p26 (not p19) (not p30)) (or p4 p33 p54) (or (not p23) (not p11) p1) (or p34 (not p59) (not p4)) (or p31 p5 (not p44)) (or (not p32) (not p42) p36) (or p39 p35 p48) (or (not p2) p13 p51) (or (not p51) p36 p12) (or (not p5) (not p14) p46) (or p10 (not p10) p11) (or p54 (not p47) p52) (or p39 (not p15) (not p28)) (or (not p53) p39 p28) (or p30 (not p31) (not p11)) (or p26 (not p50) p53) (or p52 p2 (not p8)) (or p36 (not p43) (not p38)) (or (not p45) (not p19) (not p11)) (or (not p55) (not p53) p36) (or p17 p20 (not p53)) (or p13 p45 (not p16)) (or p19 (not p40) p18) (or (not p47) p26 p35) (or p1 p40 (not p56)) (or (not p25) (not p57) p59) (or p22 p1 p41) (or (not p43) p52 p38) (or p23 (not p20) (not p3)) (or p2 p21 (not p24)) (or p6 (not p27) (not p34)) (or (not p24) (not p6) p37) (or p3 p30 p4) (or (not p53) p49 (not p52)) (or p49 (not p55) p8) (or p10 p25 (not p0)) (or (not p38) (not p16) (not p7)) (or p10 p26 (not p38)) (or (not p43) (not p1) (not p3)) (or (not p24) (not p53) p41) (or p37 (not p15) p55) (or (not p2) p26 (not p45)) (or p3 p43 p44) (or p54 (not p6) p17) (or (not p22) (not p4) p49) (or (not p48) p3 p35) (or (not p18) p32 (not p7)) (or p9 (not p11) p20) (or p28 p28 (not p25)) (or p52 (not p29) p39) (or p20 p24 (not p29)) (or (not p17) (not p23) p0) (or p58 (not p30) (not p45)) (or p31 (not p23) p3) (or p38 (not p56) (not p1)) (or (not p26) (not p15) p21) (or (not p48) (not p23) (not p23)) (or (not p40) (not p7) p45) (or p31 (not p18) p43) (or p31 (not p29) (not p21)) (or p22 p17 (not p55)) (or (not p57) (not p31) p31) (or (not p39) p32 (not p20)) (or (not p32) (not p59) p59) (or p33 (not p37) (not p3)) (or p35 (not p12) (not p51)) (or p5 p23 p4) (or (not p3) p2 p34) (or p32 (not p31) p47) (or (not p48) p29 (not p49)) (or (not p4) (not p31) (not p13)) (or p55 (not p50) (not p13)) (or p7 (not p1) p37) (or p6 (not p0) (not p17)) (or p58 (not p41) p45) (or (not p58) (not p30) p54))
)
(check-sat)
(get-model)
